3888523652752648643505,11,1,2,02,10,1,2,015,14,1,2,03,1,1,2,013,12,1,2,07,1,1,2,010,13,1,2,01,14,1,2,012,5,1,2,02,6,1,2,08,1,1,2,02,13,1,2,04,3,1,2,015,3,1,2,03,5,1,2,012,3,1,2,01,15,1,2,01,6,1,2,07,11,1,2,04,5,1,2,015,13,1,2,08,6,1,2,012,7,1,2,07,11,1,2,08,1,1,2,06,9,1,2,011,13,1,2,014,8,1,2,04,3,1,2,01,4,1,2,01,12,1,2,012,5,1,2,03,11,1,2,08,5,1,2,09,6,1,2,011,6,1,2,04,2,1,2,08,12,1,2,014,14,1,2,03,13,1,2,013,12,1,2,010,6,1,2,03,5,1,2,013,5,1,2,013,13,1,2,014,1,1,2,010,11,1,2,09,15,1,2,014,2,1,2,03,13,1,2,0